NAME : ClusterId_1037 
COMMENT : (Gillet and Johnson) 
TYPE : CVRP 
DIMENSION : 22 
EDGE_WEIGHT_TYPE : EUC_2D 
CAPACITY : 500 
NODE_COORD_SECTION 
1037 4005 267 
972 3986 8 
251 3312 464 
842 3953 58 
236 3252 643 
622 3701 360 
392 3821 377 
212 3391 855 
144 3993 448 
526 3239 1022 
242 3417 901 
899 3464 909 
72 3206 1355 
808 3199 1428 
6 4014 981 
839 3979 1095 
575 4339 901 
794 4254 947 
395 3954 1180 
615 3967 1204 
684 4389 951 
91 4044 1166 
DEMAND_SECTION 
1037 882
972 36
251 31
842 30
236 51
622 49
392 40
212 51
144 54
526 35
242 51
899 34
72 39
808 35
6 26
839 31
575 53
794 48
395 44
615 36
684 52
91 45
DEPOT_SECTION 
1037
 -1
EOF